This is Ipopt version 3.12.3, running with linear solver mumps.
NOTE: Other linear solvers might be more efficient (see Ipopt documentation).

Number of nonzeros in equality constraint Jacobian...:   673454
Number of nonzeros in inequality constraint Jacobian.:    65550
Number of nonzeros in Lagrangian Hessian.............:        0

Total number of variables............................:    74504
                     variables with only lower bounds:        0
                variables with lower and upper bounds:    74504
                     variables with only upper bounds:        0
Total number of equality constraints.................:    69504
Total number of inequality constraints...............:    28350
        inequality constraints with only lower bounds:    13800
   inequality constraints with lower and upper bounds:      750
        inequality constraints with only upper bounds:    13800

iter    objective    inf_pr   inf_du lg(mu)  ||d||  lg(rg) alpha_du alpha_pr  ls
   0 8.7790039e+003 7.89e+003 1.00e+002   0.0 0.00e+000    -  0.00e+000 0.00e+000   0
   1 8.3568510e+003 7.58e+003 2.04e+003  -5.3 7.61e+001    -  3.73e-002 3.88e-002h  1
   2 8.3496226e+003 7.57e+003 2.08e+003   0.0 7.42e+001    -  6.53e-002 1.31e-003f  1
   3 8.4926551e+003 7.45e+003 5.49e+003   1.3 1.16e+003    -  1.13e-003 1.54e-002f  1
   4 8.4975721e+003 7.41e+003 7.74e+003   0.4 3.16e+002    -  2.68e-002 6.25e-003f  1
   5 8.7150623e+003 7.24e+003 2.77e+004   0.6 3.63e+002    -  6.34e-002 2.27e-002f  1
   6 8.8270023e+003 7.20e+003 2.90e+004   1.2 4.90e+002    -  4.21e-002 5.64e-003f  1
   7 9.2971780e+003 7.11e+003 4.87e+004   1.6 9.58e+002    -  3.93e-002 1.30e-002f  1
   8 9.4972636e+003 7.09e+003 5.73e+004   2.2 1.60e+003    -  2.58e-002 2.90e-003f  1
   9 1.0235220e+004 7.04e+003 8.31e+004   2.7 2.09e+003    -  2.78e-002 6.83e-003f  1
iter    objective    inf_pr   inf_du lg(mu)  ||d||  lg(rg) alpha_du alpha_pr  ls
  10 1.0637075e+004 6.98e+003 3.59e+005   2.6 7.93e+002    -  2.47e-002 8.03e-003f  1
  11 1.2175784e+004 6.85e+003 2.84e+006   3.0 7.88e+002    -  1.00e+000 1.92e-002f  1
  12 1.2626557e+004 6.73e+003 3.87e+007   3.7 4.59e+002    -  1.59e-002 1.48e-002h  1
  13 1.2773919e+004 6.67e+003 7.04e+007   3.4 5.24e+002    -  2.67e-002 8.91e-003h  1
  14 1.2994977e+004 6.59e+003 1.42e+008   3.7 8.08e+002    -  2.31e-002 1.24e-002h  1
  15 1.3389347e+004 6.47e+003 2.91e+008  -2.9 1.06e+003    -  1.73e-002 1.65e-002h  1
  16 1.3552581e+004 6.42e+003 3.66e+008   3.5 6.97e+002    -  2.51e-002 7.34e-003h  1
  17 1.3721928e+004 6.36e+003 4.93e+008   3.7 7.63e+002    -  9.92e-003 9.27e-003h  1
  18 1.4224072e+004 6.25e+003 8.50e+008   3.7 7.26e+002    -  2.26e-002 1.70e-002h  1
  19 1.4524550e+004 6.19e+003 1.10e+009   3.7 6.96e+002    -  2.05e-002 9.70e-003h  1
iter    objective    inf_pr   inf_du lg(mu)  ||d||  lg(rg) alpha_du alpha_pr  ls
  20 1.4793525e+004 6.13e+003 1.33e+009   3.3 9.54e+002    -  2.18e-002 8.13e-003h  1
  21 1.5283952e+004 6.05e+003 1.78e+009   3.7 1.15e+003    -  1.07e-002 1.31e-002h  1
  22 1.5466044e+004 6.02e+003 1.97e+009  -2.8 1.56e+003    -  1.35e-002 5.45e-003h  1
  23 1.5809551e+004 5.96e+003 2.40e+009   3.7 1.07e+003    -  2.45e-003 1.00e-002h  1
  24 1.6063171e+004 5.92e+003 2.70e+009   3.4 8.84e+002    -  2.88e-002 6.30e-003h  1
  25 1.6619560e+004 5.85e+003 3.33e+009  -2.8 9.65e+002    -  5.16e-003 1.19e-002h  1
  26 1.6788434e+004 5.82e+003 3.53e+009   3.3 3.14e+003    -  8.68e-003 3.84e-003h  1
  27 1.7276177e+004 5.77e+003 4.09e+009   1.1 2.97e+003    -  1.04e-002 9.81e-003h  1
  28 1.7508888e+004 5.74e+003 4.36e+009   3.3 1.14e+003    -  1.05e-002 4.24e-003h  1
  29 1.7717006e+004 5.72e+003 4.63e+009   3.7 2.64e+003    -  7.35e-003 3.98e-003h  1
iter    objective    inf_pr   inf_du lg(mu)  ||d||  lg(rg) alpha_du alpha_pr  ls
  30 1.7924796e+004 5.69e+003 4.95e+009   3.7 4.04e+003    -  1.03e-002 4.31e-003h  1
  31 1.8018143e+004 5.68e+003 5.10e+009  -2.8 2.15e+003    -  8.91e-003 2.06e-003h  1
  32 1.8521445e+004 5.62e+003 6.02e+009   3.3 2.44e+003    -  4.48e-003 1.03e-002h  1
  33 1.8610049e+004 5.61e+003 6.19e+009  -2.8 3.34e+003    -  7.18e-003 1.95e-003h  1
  34 1.8842468e+004 5.58e+003 6.68e+009   3.0 2.79e+003    -  4.04e-003 5.12e-003h  1
  35 1.8931812e+004 5.57e+003 6.90e+009   2.3 1.69e+003    -  7.06e-003 2.15e-003h  1
  36 1.9261708e+004 5.52e+003 7.80e+009  -2.8 1.85e+003    -  5.60e-003 7.94e-003h  1
  37 1.9352805e+004 5.51e+003 8.08e+009  -2.8 2.58e+003    -  4.44e-003 2.48e-003h  1
  38 1.9635447e+004 5.47e+003 8.95e+009   2.7 2.55e+003    -  6.97e-003 7.06e-003h  1
  39 1.9674123e+004 5.47e+003 9.05e+009  -2.8 1.68e+003    -  2.34e-003 9.23e-004h  1
iter    objective    inf_pr   inf_du lg(mu)  ||d||  lg(rg) alpha_du alpha_pr  ls
  40 1.9911726e+004 5.44e+003 9.73e+009   3.7 1.78e+003    -  7.93e-003 5.53e-003h  1
  41 2.0257895e+004 5.40e+003 1.07e+010  -2.8 1.27e+003    -  4.24e-003 7.24e-003h  1
  42 2.0378775e+004 5.38e+003 1.11e+010   3.7 2.23e+003    -  1.36e-003 3.07e-003h  1
  43 2.0643846e+004 5.35e+003 1.21e+010   3.6 2.39e+003    -  4.46e-003 6.37e-003h  1
  44 2.0743536e+004 5.33e+003 1.24e+010  -2.8 1.84e+003    -  5.86e-003 2.34e-003h  1
  45 2.0942583e+004 5.31e+003 1.32e+010  -2.8 1.77e+003    -  3.17e-003 4.44e-003h  1
  46 2.0979929e+004 5.30e+003 1.33e+010   3.0 2.28e+003    -  3.07e-003 8.79e-004h  1
  47 2.1149654e+004 5.28e+003 1.42e+010   2.5 3.35e+003    -  1.93e-003 4.43e-003h  1
  48 2.1241762e+004 5.27e+003 1.47e+010  -2.8 2.47e+003    -  5.21e-003 2.22e-003h  1
  49 2.1276535e+004 5.26e+003 1.49e+010   3.2 2.62e+003    -  4.51e-003 8.94e-004h  1
iter    objective    inf_pr   inf_du lg(mu)  ||d||  lg(rg) alpha_du alpha_pr  ls
  50 2.1414326e+004 5.25e+003 1.56e+010  -2.8 3.33e+003    -  1.94e-003 3.31e-003h  1
  51 2.1474553e+004 5.24e+003 1.59e+010   3.2 3.91e+003    -  3.84e-003 1.39e-003h  1
  52 2.1650033e+004 5.22e+003 1.68e+010   3.7 3.89e+003    -  3.71e-003 3.17e-003h  1
  53 2.1663032e+004 5.22e+003 1.68e+010  -2.8 2.85e+003    -  2.47e-003 2.33e-004h  1
  54 2.1769966e+004 5.21e+003 1.75e+010   3.7 2.19e+003    -  3.08e-003 2.01e-003h  1
  55 2.1885288e+004 5.20e+003 1.83e+010   3.7 2.97e+003    -  2.22e-003 2.00e-003h  1
  56 2.2146884e+004 5.18e+003 2.01e+010   3.7 3.86e+003    -  1.97e-003 3.63e-003h  1
  57 2.2290806e+004 5.17e+003 2.12e+010   3.6 3.39e+003    -  2.50e-003 1.83e-003h  1
  58 2.2386903e+004 5.17e+003 2.21e+010   3.6 3.85e+003    -  2.40e-003 1.22e-003h  1
  59 2.2620536e+004 5.15e+003 2.44e+010  -2.8 4.18e+003    -  2.69e-004 2.85e-003h  1
iter    objective    inf_pr   inf_du lg(mu)  ||d||  lg(rg) alpha_du alpha_pr  ls
  60 2.2703220e+004 5.15e+003 2.53e+010   3.7 6.51e+003    -  7.57e-004 9.21e-004h  1
  61 2.2748993e+004 5.14e+003 2.57e+010   1.7 7.57e+003    -  2.89e-003 4.54e-004h  1
  62 2.2865982e+004 5.14e+003 2.66e+010   3.7 1.05e+004    -  1.04e-003 1.10e-003h  1
  63 2.2936959e+004 5.13e+003 2.72e+010  -2.8 1.05e+004    -  1.63e-003 6.58e-004h  1
  64 2.3043522e+004 5.13e+003 2.80e+010   3.7 6.02e+003    -  1.16e-003 9.17e-004h  1
  65 2.3123152e+004 5.13e+003 2.87e+010   3.7 5.50e+003    -  1.60e-003 6.92e-004h  1
  66 2.3184694e+004 5.12e+003 2.92e+010   3.7 1.28e+004    -  1.32e-003 5.41e-004h  1
  67 2.3365370e+004 5.12e+003 3.12e+010   3.7 1.75e+004    -  1.57e-003 1.53e-003h  1
  68 2.3401413e+004 5.11e+003 3.17e+010   2.6 2.01e+004    -  2.66e-003 3.56e-004h  1
  69 2.3416820e+004 5.11e+003 3.21e+010   3.7 1.22e+004    -  6.61e-004 4.35e-004h  1
iter    objective    inf_pr   inf_du lg(mu)  ||d||  lg(rg) alpha_du alpha_pr  ls
  70 2.3423572e+004 5.11e+003 3.23e+010  -2.8 4.10e+003    -  5.79e-004 1.48e-004h  1
  71 2.3543411e+004 5.10e+003 3.37e+010   3.7 7.64e+003    -  2.49e-005 1.56e-003h  1
  72 2.3569884e+004 5.10e+003 3.40e+010   2.5 1.08e+004    -  5.71e-004 3.25e-004h  1
  73 2.3647239e+004 5.10e+003 3.49e+010   3.7 1.70e+004    -  3.69e-004 9.21e-004h  1
  74 2.3691349e+004 5.09e+003 3.58e+010   3.7 1.60e+004    -  4.63e-005 4.53e-004h  1
  75 2.3700045e+004 5.09e+003 3.60e+010   3.7 1.35e+004    -  6.21e-005 9.36e-005h  1
  76 2.3721900e+004 5.09e+003 3.63e+010   3.7 1.08e+004    -  5.76e-004 1.97e-004h  1
  77 2.3853311e+004 5.09e+003 3.82e+010   3.7 9.90e+003    -  3.59e-004 9.67e-004h  1
  78 2.3904518e+004 5.09e+003 3.90e+010   3.7 9.51e+003    -  1.61e-003 3.59e-004h  1
  79 2.3976662e+004 5.08e+003 4.02e+010   3.7 1.32e+004    -  4.21e-004 5.85e-004h  1
iter    objective    inf_pr   inf_du lg(mu)  ||d||  lg(rg) alpha_du alpha_pr  ls
  80 2.4027605e+004 5.08e+003 4.12e+010  -2.8 1.41e+004    -  6.62e-004 4.00e-004h  1
  81 2.4059994e+004 5.08e+003 4.20e+010  -2.8 1.30e+004    -  4.66e-004 2.42e-004h  1
  82 2.4104155e+004 5.08e+003 4.30e+010   3.7 1.09e+004    -  2.03e-004 2.89e-004h  1
  83 2.4190049e+004 5.08e+003 4.50e+010   2.5 1.01e+004    -  9.84e-004 5.08e-004h  1
  84 2.4281460e+004 5.07e+003 4.72e+010   3.7 1.79e+004    -  3.19e-004 4.88e-004h  1
  85 2.4361883e+004 5.07e+003 4.93e+010   3.7 1.25e+004    -  2.26e-004 4.32e-004h  1
  86 2.4372786e+004 5.07e+003 4.96e+010  -2.8 1.39e+004    -  2.09e-004 6.52e-005h  1
  87 2.4494918e+004 5.07e+003 5.31e+010   3.7 1.42e+004    -  6.12e-006 6.18e-004h  1
  88 2.4518699e+004 5.07e+003 5.47e+010   3.7 2.34e+004    -  3.94e-005 2.65e-004h  1
  89 2.4533919e+004 5.07e+003 5.54e+010   3.7 1.74e+004    -  1.84e-004 9.89e-005h  1
iter    objective    inf_pr   inf_du lg(mu)  ||d||  lg(rg) alpha_du alpha_pr  ls
  90 2.4542523e+004 5.07e+003 5.63e+010   3.7 3.16e+004    -  6.15e-004 1.43e-004h  1
  91 2.4545292e+004 5.06e+003 5.66e+010   2.8 2.02e+004    -  5.37e-004 4.32e-005h  1
  92 2.4544986e+004 5.06e+003 5.83e+010   3.7 2.73e+004    -  2.33e-004 1.36e-004h  1
  93 2.4550217e+004 5.06e+003 6.05e+010   1.6 1.42e+004    -  5.14e-004 1.89e-004h  1
  94 2.4517361e+004 5.06e+003 6.97e+010   3.7 2.16e+004    -  2.24e-004 4.22e-004h  1
  95 2.4510193e+004 5.06e+003 7.18e+010  -2.8 2.41e+004    -  8.53e-005 7.44e-005h  1
  96 2.4501909e+004 5.06e+003 7.45e+010   3.7 2.67e+004    -  5.34e-004 8.82e-005h  1
  97 2.4487460e+004 5.06e+003 7.67e+010  -2.7 5.25e+004    -  1.22e-004 6.64e-005h  1
  98r2.4487460e+004 5.06e+003 1.00e+003   3.7 0.00e+000    -  0.00e+000 2.95e-007R  6
  99r2.4179742e+004 2.28e+003 1.17e+003  -2.5 4.92e+001    -  5.16e-001 3.28e-001f  1
iter    objective    inf_pr   inf_du lg(mu)  ||d||  lg(rg) alpha_du alpha_pr  ls
 100r2.4179742e+004 2.28e+003 9.99e+002   0.6 0.00e+000   4.0 0.00e+000 2.53e-008R  5
 101r2.3980838e+004 1.98e+003 9.98e+002  -0.1 3.41e+003    -  1.26e-003 1.02e-003f  1
 102 2.3980652e+004 1.98e+003 8.20e+003   1.4 3.47e+001   3.5 1.39e-001 2.13e-005h  1
 103 2.3977193e+004 1.98e+003 1.43e+004   2.8 1.89e+002   3.0 2.23e-004 8.41e-005f  1
 104 2.3975598e+004 1.98e+003 1.34e+004  -5.2 2.43e+002   2.6 7.87e-005 1.23e-004h  1
 105 2.2848676e+004 1.76e+003 3.05e+006   1.7 4.51e+000   3.4 1.44e-002 1.10e-001f  1
 106 2.2840235e+004 1.75e+003 3.02e+006  -5.1 9.74e+001   2.9 2.80e-004 6.33e-004h  1
 107 2.2643076e+004 1.74e+003 3.64e+006   2.0 1.15e+003    -  2.47e-003 6.98e-003f  1
 108 2.2594689e+004 1.74e+003 4.02e+006  -5.1 1.36e+003    -  4.62e-003 3.43e-003h  1
 109 2.2469121e+004 1.73e+003 4.75e+006   2.4 1.24e+003    -  3.81e-003 3.61e-003f  1
iter    objective    inf_pr   inf_du lg(mu)  ||d||  lg(rg) alpha_du alpha_pr  ls
 110 2.2337486e+004 1.71e+003 5.40e+006   0.1 9.88e+002    -  3.18e-003 8.55e-003h  1
 111 2.2283923e+004 1.71e+003 5.61e+006   0.5 9.62e+002    -  9.35e-003 4.74e-003h  1
 112 2.2269310e+004 1.70e+003 5.68e+006   1.9 1.22e+003    -  6.55e-003 9.12e-004f  1
 113 2.2222981e+004 1.70e+003 5.89e+006   1.7 1.33e+003    -  5.44e-003 4.25e-003f  1
 114 2.2152591e+004 1.69e+003 6.19e+006   2.0 1.36e+003    -  2.19e-003 5.36e-003f  1
 115 2.2148068e+004 1.69e+003 6.30e+006   1.2 1.21e+003    -  5.11e-003 1.32e-003f  1
 116 2.2105134e+004 1.68e+003 6.70e+006   2.3 2.75e+003    -  4.95e-003 2.91e-003f  1
 117 2.1932496e+004 1.68e+003 6.96e+006   2.9 4.98e+003    -  3.42e-003 2.38e-003f  1
 118 2.1923288e+004 1.67e+003 7.11e+006  -4.9 1.33e+003    -  2.25e-003 2.13e-003h  1
 119 2.1912766e+004 1.67e+003 7.22e+006   1.4 1.21e+003    -  3.66e-003 8.23e-004f  1
iter    objective    inf_pr   inf_du lg(mu)  ||d||  lg(rg) alpha_du alpha_pr  ls
 120 2.1822921e+004 1.66e+003 8.44e+006   1.5 1.00e+003    -  3.06e-003 7.57e-003f  1
 121 2.1812148e+004 1.66e+003 8.58e+006   1.8 2.09e+003    -  6.28e-003 8.07e-004f  1
 122 2.1566516e+004 1.65e+003 1.00e+007   2.7 2.72e+003    -  4.48e-003 5.19e-003f  1
 123 2.1432031e+004 1.64e+003 1.14e+007   2.4 1.90e+003    -  7.14e-003 5.28e-003f  1
 124 2.1419569e+004 1.63e+003 1.23e+007  -4.8 1.56e+003    -  5.39e-003 5.03e-003h  1
 125 2.1322394e+004 1.63e+003 1.33e+007   2.4 1.51e+003    -  5.16e-003 3.24e-003f  1
 126 2.1308159e+004 1.63e+003 1.35e+007   1.9 1.67e+003    -  6.13e-003 7.58e-004f  1
 127 2.1258627e+004 1.62e+003 1.43e+007  -4.7 1.75e+003    -  4.02e-003 5.19e-003h  1
 128 2.1183855e+004 1.61e+003 1.56e+007   1.6 1.78e+003    -  5.45e-003 6.77e-003f  1
 129 2.1166446e+004 1.60e+003 1.59e+007   1.2 1.72e+003    -  6.57e-003 2.81e-003h  1
iter    objective    inf_pr   inf_du lg(mu)  ||d||  lg(rg) alpha_du alpha_pr  ls
 130 2.1141422e+004 1.59e+003 1.63e+007  -4.7 2.09e+003    -  2.76e-003 4.03e-003h  1
 131 2.0957829e+004 1.59e+003 1.67e+007   2.5 1.87e+003    -  3.24e-003 4.83e-003f  1
 132 2.0949718e+004 1.59e+003 1.68e+007   2.0 2.00e+003    -  7.48e-003 5.27e-004f  1
 133 2.0864988e+004 1.58e+003 1.77e+007   2.0 1.93e+003    -  4.40e-003 4.76e-003f  1
 134 2.0224991e+004 1.57e+003 2.19e+007   2.9 4.12e+003    -  4.93e-003 7.73e-003f  1
 135 1.9993874e+004 1.56e+003 2.38e+007   2.6 3.61e+003    -  5.18e-003 4.90e-003f  1
 136 1.9978672e+004 1.56e+003 2.39e+007  -4.6 1.86e+003    -  6.08e-003 1.45e-003h  1
 137 1.9640796e+004 1.55e+003 2.54e+007   2.9 2.98e+003    -  5.60e-003 4.86e-003f  1
 138 1.9302037e+004 1.54e+003 2.80e+007   2.6 1.65e+003    -  6.41e-003 6.58e-003f  1
 139 1.9266420e+004 1.53e+003 2.92e+007   1.8 2.74e+003    -  3.52e-003 2.37e-003f  1
iter    objective    inf_pr   inf_du lg(mu)  ||d||  lg(rg) alpha_du alpha_pr  ls
 140 1.9167657e+004 1.52e+003 3.44e+007   1.8 3.98e+003    -  7.45e-003 8.89e-003f  1
 141 1.9145608e+004 1.52e+003 3.62e+007   1.5 1.57e+003    -  3.74e-003 2.61e-003h  1
 142 1.9115342e+004 1.50e+003 4.38e+007   1.0 2.41e+003    -  5.25e-003 9.18e-003h  1
 143 1.8897991e+004 1.49e+003 5.00e+007   2.7 4.52e+003    -  7.24e-003 6.08e-003f  1
 144 1.8838411e+004 1.49e+003 5.23e+007   2.5 1.39e+003    -  6.54e-003 2.81e-003f  1
 145 1.8757561e+004 1.49e+003 5.37e+007   2.9 1.38e+003    -  6.75e-003 1.83e-003f  1
 146 1.8751060e+004 1.48e+003 5.61e+007  -4.4 1.08e+003    -  4.79e-003 4.68e-003h  1
 147 1.8682857e+004 1.47e+003 5.87e+007   2.4 1.90e+003    -  9.69e-003 7.35e-003f  1
 148 1.8687812e+004 1.47e+003 5.90e+007  -4.4 1.64e+003    -  5.68e-003 7.65e-004h  1
 149 1.8649398e+004 1.46e+003 6.20e+007   2.4 2.26e+003    -  5.80e-003 5.93e-003f  1
iter    objective    inf_pr   inf_du lg(mu)  ||d||  lg(rg) alpha_du alpha_pr  ls
 150 1.8440734e+004 1.45e+003 6.02e+007   3.0 4.12e+003    -  5.17e-003 4.47e-003f  1
 151 1.8406697e+004 1.45e+003 6.02e+007   2.4 2.76e+003    -  8.09e-003 2.18e-003f  1
 152 1.8015253e+004 1.44e+003 6.46e+007   3.1 3.67e+003    -  7.45e-003 7.64e-003f  1
 153 1.7879977e+004 1.43e+003 6.74e+007   2.9 2.39e+003    -  8.60e-003 4.03e-003f  1
 154 1.7854362e+004 1.42e+003 7.50e+007   1.8 2.19e+003    -  5.39e-003 1.08e-002h  1
 155 1.7869885e+004 1.41e+003 7.71e+007  -4.2 2.02e+003    -  3.14e-003 3.72e-003h  1
 156 1.7877887e+004 1.41e+003 7.80e+007   1.7 1.48e+003    -  3.36e-003 9.80e-004h  1
 157 1.7927673e+004 1.40e+003 8.33e+007   2.3 1.90e+003    -  1.72e-003 7.95e-003h  1
 158 1.7951364e+004 1.40e+003 8.42e+007   1.2 1.92e+003    -  7.16e-003 1.78e-003h  1
 159 1.7988735e+004 1.39e+003 8.66e+007   2.4 2.11e+003    -  1.10e-002 4.39e-003h  1
iter    objective    inf_pr   inf_du lg(mu)  ||d||  lg(rg) alpha_du alpha_pr  ls
 160 1.8024236e+004 1.39e+003 8.76e+007  -4.2 1.67e+003    -  4.78e-004 2.32e-003h  1
 161 1.8051748e+004 1.39e+003 8.88e+007   1.5 1.94e+003    -  8.22e-003 2.08e-003h  1
 162 1.8134188e+004 1.37e+003 9.32e+007   1.8 2.00e+003    -  8.62e-003 7.31e-003h  1
 163 1.8171479e+004 1.37e+003 9.59e+007  -4.2 3.01e+003    -  3.38e-003 3.71e-003h  1
 164 1.8174689e+004 1.37e+003 9.62e+007   2.1 1.19e+003    -  5.06e-003 2.95e-004h  1
 165 1.8182831e+004 1.36e+003 1.03e+008   2.9 2.15e+003    -  5.22e-003 7.45e-003f  1
 166 1.8198435e+004 1.35e+003 1.05e+008   2.6 3.07e+003    -  5.31e-003 3.30e-003h  1
 167 1.8233752e+004 1.34e+003 1.18e+008   2.4 4.41e+003    -  7.76e-003 6.31e-003h  1
 168 1.8251173e+004 1.34e+003 1.22e+008  -4.1 2.99e+003    -  5.29e-003 1.54e-003h  1
 169 1.8248406e+004 1.34e+003 1.30e+008   2.1 2.18e+003    -  3.05e-003 4.49e-003h  1
iter    objective    inf_pr   inf_du lg(mu)  ||d||  lg(rg) alpha_du alpha_pr  ls
 170 1.8265411e+004 1.33e+003 1.38e+008   2.1 2.08e+003    -  2.72e-003 5.14e-003h  1
 171 1.8280657e+004 1.32e+003 1.47e+008   2.1 2.04e+003    -  3.79e-003 3.97e-003h  1
 172 1.8245894e+004 1.32e+003 1.65e+008   3.1 3.35e+003    -  5.87e-003 3.65e-003f  1
 173 1.8335656e+004 1.31e+003 1.86e+008  -4.1 1.71e+003    -  5.00e-003 6.69e-003h  1
 174 1.8269974e+004 1.31e+003 1.94e+008   3.1 2.80e+003    -  6.39e-003 2.15e-003f  1
 175 1.8269546e+004 1.30e+003 2.01e+008   2.7 2.30e+003    -  5.05e-003 3.20e-003f  1
 176 1.8307086e+004 1.30e+003 2.07e+008   1.9 1.55e+003    -  5.97e-003 3.56e-003h  1
 177 1.8294058e+004 1.29e+003 2.16e+008   2.8 1.81e+003    -  3.40e-003 5.99e-003f  1
 178 1.8293621e+004 1.28e+003 2.24e+008  -4.0 1.37e+003    -  2.17e-003 5.75e-003h  1
 179 1.8287805e+004 1.28e+003 2.24e+008  -4.0 1.20e+003    -  1.38e-003 4.73e-004h  1
iter    objective    inf_pr   inf_du lg(mu)  ||d||  lg(rg) alpha_du alpha_pr  ls
 180 1.8212465e+004 1.28e+003 2.26e+008   2.7 1.15e+003    -  6.10e-003 3.43e-003f  1
 181 1.8157260e+004 1.27e+003 2.28e+008  -4.0 1.17e+003    -  4.81e-004 4.70e-003h  1
 182 1.8107542e+004 1.27e+003 2.51e+008   1.8 1.14e+003    -  6.15e-003 5.04e-003h  1
 183 1.8102673e+004 1.26e+003 2.56e+008   0.4 1.19e+003    -  6.88e-003 1.49e-003h  1
 184 1.8093796e+004 1.26e+003 2.67e+008   2.1 1.07e+003    -  6.15e-003 5.16e-003h  1
 185 1.8134684e+004 1.25e+003 2.90e+008  -4.0 1.01e+003    -  4.37e-003 4.14e-003h  1
 186 1.8302157e+004 1.24e+003 3.72e+008   2.1 1.40e+003    -  3.59e-003 8.66e-003h  1
 187 1.8335045e+004 1.24e+003 3.78e+008  -4.0 1.27e+003    -  1.29e-003 9.91e-004h  1
 188 1.8576337e+004 1.23e+003 4.29e+008   1.9 2.81e+003    -  5.24e-003 6.86e-003h  1
 189 1.8630954e+004 1.23e+003 4.43e+008  -4.0 2.57e+003    -  2.77e-003 2.12e-003h  1
iter    objective    inf_pr   inf_du lg(mu)  ||d||  lg(rg) alpha_du alpha_pr  ls
 190 1.8719272e+004 1.22e+003 5.07e+008   2.3 3.12e+003    -  3.05e-003 6.89e-003f  1
 191 1.8816329e+004 1.21e+003 5.51e+008  -4.0 2.02e+003    -  5.54e-003 5.45e-003h  1
 192 1.8841061e+004 1.21e+003 5.59e+008   2.3 1.50e+003    -  7.27e-003 1.12e-003f  1
 193 1.8649419e+004 1.21e+003 6.05e+008   3.7 4.15e+003    -  2.21e-003 2.07e-003f  1
 194 1.8659997e+004 1.20e+003 6.14e+008   1.6 8.40e+002    -  8.49e-003 2.00e-003h  1
 195 1.8683607e+004 1.19e+003 6.70e+008   2.3 9.64e+002    -  1.21e-002 1.16e-002f  1
 196 1.8606743e+004 1.18e+003 6.96e+008   3.1 1.18e+003    -  7.33e-003 4.49e-003f  1
 197 1.8647397e+004 1.18e+003 7.14e+008   2.8 1.74e+003    -  7.75e-003 3.02e-003f  1
 198 1.8711901e+004 1.18e+003 7.18e+008   1.8 1.56e+003    -  6.85e-003 2.79e-003h  1
 199 1.8784226e+004 1.17e+003 7.25e+008  -3.9 1.47e+003    -  4.63e-003 3.29e-003h  1
iter    objective    inf_pr   inf_du lg(mu)  ||d||  lg(rg) alpha_du alpha_pr  ls
 200 1.8857003e+004 1.17e+003 7.52e+008   3.6 1.64e+003    -  4.03e-003 4.89e-003f  1
 201 1.8885818e+004 1.16e+003 7.61e+008   3.0 7.54e+002    -  4.84e-003 1.93e-003h  1
 202 1.8896559e+004 1.16e+003 7.89e+008  -3.9 9.21e+002    -  3.02e-003 6.12e-003h  1
 203 1.8904064e+004 1.15e+003 8.04e+008  -3.9 1.04e+003    -  4.77e-003 3.74e-003h  1
 204 1.8928537e+004 1.14e+003 8.51e+008   2.0 1.27e+003    -  5.74e-003 1.13e-002h  1
 205 1.8950469e+004 1.13e+003 8.62e+008   2.6 1.73e+003    -  1.03e-002 3.25e-003f  1
 206 1.8965307e+004 1.13e+003 8.89e+008   3.5 2.85e+003    -  5.61e-003 4.46e-003f  1
 207 1.8973018e+004 1.13e+003 8.93e+008   1.6 5.78e+002    -  6.70e-003 9.37e-004h  1
 208 1.9026338e+004 1.12e+003 9.22e+008  -3.8 6.76e+002    -  2.86e-003 6.27e-003h  1
 209 1.9040905e+004 1.11e+003 9.81e+008   2.2 9.04e+002    -  8.46e-003 1.19e-002h  1
iter    objective    inf_pr   inf_du lg(mu)  ||d||  lg(rg) alpha_du alpha_pr  ls
 210 1.9022638e+004 1.10e+003 1.06e+009   2.9 8.94e+002    -  9.89e-003 1.01e-002f  1
 211 1.9025746e+004 1.09e+003 1.07e+009  -3.8 1.03e+003    -  5.26e-003 9.90e-004h  1
 212 1.9116361e+004 1.08e+003 1.08e+009   1.3 1.02e+003    -  8.20e-003 1.37e-002h  1
 213 1.9190109e+004 1.07e+003 1.08e+009   1.8 1.06e+003    -  9.87e-003 5.95e-003h  1
 214 1.9282066e+004 1.06e+003 1.09e+009   2.0 1.05e+003    -  1.28e-002 6.63e-003h  1
 215 1.9319950e+004 1.06e+003 1.09e+009  -3.8 1.23e+003    -  6.44e-003 1.88e-003h  1
 216 1.9473827e+004 1.05e+003 1.11e+009   0.7 1.26e+003    -  2.78e-003 7.59e-003h  1
 217 1.9764152e+004 1.04e+003 1.17e+009   2.3 1.16e+003    -  8.80e-003 1.35e-002h  1
 218 1.9731550e+004 1.03e+003 1.19e+009   3.1 1.74e+003    -  4.77e-003 3.71e-003f  1
 219 1.9776428e+004 1.03e+003 1.22e+009   2.1 1.74e+003    -  6.21e-003 7.86e-003h  1
iter    objective    inf_pr   inf_du lg(mu)  ||d||  lg(rg) alpha_du alpha_pr  ls
 220 1.9768840e+004 1.02e+003 1.23e+009   2.2 1.88e+003    -  1.47e-002 4.11e-003h  1
 221 1.9733233e+004 1.01e+003 1.26e+009  -3.8 1.09e+003    -  4.60e-003 8.31e-003h  1
 222 1.9699730e+004 1.01e+003 1.27e+009  -3.8 8.96e+002    -  3.28e-003 5.68e-003h  1
 223 1.9670814e+004 1.00e+003 1.27e+009   0.8 8.87e+002    -  6.35e-003 3.77e-003h  1
 224 1.9551509e+004 9.93e+002 1.29e+009   2.3 8.54e+002    -  6.09e-003 9.66e-003h  1
 225 1.9481615e+004 9.85e+002 1.30e+009   0.1 8.94e+002    -  1.33e-002 7.42e-003h  1
 226 1.9414190e+004 9.77e+002 1.33e+009   2.3 1.04e+003    -  7.50e-003 7.66e-003h  1
 227 1.9411795e+004 9.76e+002 1.33e+009   2.1 1.14e+003    -  5.18e-003 1.38e-003h  1
 228 1.9419516e+004 9.70e+002 1.33e+009   2.3 1.18e+003    -  5.04e-003 5.25e-003h  1
 229 1.9438251e+004 9.67e+002 1.34e+009   2.6 1.28e+003    -  1.10e-002 3.72e-003h  1
iter    objective    inf_pr   inf_du lg(mu)  ||d||  lg(rg) alpha_du alpha_pr  ls
 230 1.9438805e+004 9.60e+002 1.36e+009   3.2 1.73e+003    -  8.94e-003 6.21e-003f  1
 231 1.9563656e+004 9.51e+002 1.40e+009   2.5 1.38e+003    -  9.74e-003 9.28e-003h  1
 232 1.9586707e+004 9.49e+002 1.41e+009   0.1 1.22e+003    -  3.64e-003 2.33e-003h  1
 233 1.9540454e+004 9.42e+002 1.43e+009   2.7 1.50e+003    -  5.46e-003 6.95e-003f  1
 234 1.9548750e+004 9.39e+002 1.44e+009  -3.8 1.05e+003    -  3.26e-003 2.81e-003h  1
 235 1.9538857e+004 9.34e+002 1.45e+009  -3.8 8.86e+002    -  7.41e-004 5.67e-003h  1
 236 1.9502335e+004 9.30e+002 1.46e+009   2.5 1.56e+003    -  6.91e-003 3.77e-003h  1
 237 1.9495725e+004 9.29e+002 1.46e+009  -3.8 1.25e+003    -  8.60e-003 1.62e-003h  1
 238 1.9434040e+004 9.22e+002 1.47e+009   2.9 1.37e+003    -  3.43e-003 7.51e-003f  1
 239 1.9426910e+004 9.20e+002 1.47e+009  -3.8 6.48e+002    -  3.43e-003 2.22e-003h  1
iter    objective    inf_pr   inf_du lg(mu)  ||d||  lg(rg) alpha_du alpha_pr  ls
 240 1.9273553e+004 9.17e+002 1.47e+009   3.6 2.55e+003    -  2.96e-003 3.08e-003f  1
 241 1.9267461e+004 9.12e+002 1.47e+009   2.2 2.60e+003    -  5.82e-003 5.28e-003h  1
 242 1.9236262e+004 9.10e+002 1.47e+009   3.0 2.27e+003    -  6.06e-003 1.60e-003f  1
 243 1.9172137e+004 9.01e+002 1.47e+009   2.5 1.96e+003    -  7.33e-003 1.04e-002h  1
 244 1.9168293e+004 8.98e+002 1.47e+009   2.6 2.29e+003    -  6.22e-003 3.07e-003h  1
 245 1.9183919e+004 8.96e+002 1.47e+009  -3.7 9.42e+002    -  1.52e-003 2.09e-003h  1
 246 1.9251619e+004 8.91e+002 1.47e+009   2.0 1.05e+003    -  3.95e-003 5.28e-003h  1
 247 1.9494785e+004 8.82e+002 1.48e+009   2.3 1.06e+003    -  6.50e-003 9.93e-003h  1
 248 1.9578173e+004 8.79e+002 1.47e+009  -3.7 1.50e+003    -  2.99e-003 2.99e-003h  1
 249 1.9842689e+004 8.73e+002 1.45e+009   1.9 1.58e+003    -  2.79e-003 7.44e-003h  1
iter    objective    inf_pr   inf_du lg(mu)  ||d||  lg(rg) alpha_du alpha_pr  ls
 250 2.0059895e+004 8.68e+002 1.44e+009  -3.7 1.35e+003    -  3.62e-003 5.83e-003h  1
 251 2.0085147e+004 8.67e+002 1.44e+009  -3.7 8.69e+002    -  3.36e-004 1.01e-003h  1
Exception of type: IpoptException in file "Unknown File" at line -1:
 Exception message: Unknown Exception caught in Ipopt
      solver  :   t_proc      (avg)   t_wall      (avg)    n_eval
       nlp_f  |   3.17 s ( 12.05ms)   3.16 s ( 12.03ms)       263
       nlp_g  |   3.81 s ( 14.48ms)   3.81 s ( 14.48ms)       263
  nlp_grad_f  |  10.20 s ( 40.31ms)  10.19 s ( 40.28ms)       253
   nlp_jac_g  | 184.19 s (722.30ms) 184.20 s (722.34ms)       255
       total  | 865.67 s (865.67 s) 865.67 s (865.67 s)         1
